p cnf 69 324
-61 -63 0
-40 -46 0
-11 -40 0
-3 -5 -8 -11 0
-11 -61 0
-5 -15 0
-36 -61 0
-3 -8 -37 0
-3 -4 -37 0
-46 -61 0
-3 -61 0
-6 -61 0
-37 -61 0
-40 -61 0
-2 -5 -8 0
-17 -61 0
-5 -7 -16 0
-8 -12 -61 0
-18 -61 0
-19 -61 0
-44 -61 0
-45 -61 0
-60 -61 0
-61 -65 0
-9 -61 0
-5 -14 -61 0
-22 -32 0
-5 -22 -61 0
-31 -61 0
-32 -61 0
-5 -24 0
-38 -56 0
-38 -61 0
-5 -42 -61 0
-56 -61 0
-5 -43 0
-61 -62 0
-61 -64 0
-41 -61 0
-61 -70 0
-5 -8 -16 0
-2 -61 0
-7 -12 -61 0
-5 -12 -16 0
-14 -15 0
-12 -28 -61 0
-15 -42 0
-16 -42 0
-42 -43 0
-24 -42 0
-12 -27 -61 0
-10 -12 -61 0
-12 -42 -61 0
-12 -14 -61 0
-24 -61 0
-14 -16 0
-7 -16 -22 0
-15 -22 0
-15 -61 0
-16 -61 0
-13 -16 0
-8 -37 -46 0
-12 -46 0
-38 -46 0
-11 -16 0
-13 -24 0
-11 -63 0
-11 -62 0
-11 -64 0
-11 -41 0
-11 -70 0
-36 -39 0
-11 -43 0
-8 -9 -62 0
-36 -46 0
-36 -63 0
-36 -40 0
-3 -36 0
-12 -36 0
-37 -62 0
-37 -64 0
-36 -43 0
-36 -64 0
-15 -36 0
-8 -15 -37 0
-37 -40 0
-12 -19 0
-40 -60 0
-6 -7 -40 -43 0
-9 -28 -62 0
-9 -10 -62 0
-9 -29 -40 0
-3 -40 0
-4 -9 -15 -62 0
-46 -60 0
-60 -63 0
-3 -7 -62 0
-3 -27 -62 0
-3 -9 -62 0
-46 -62 0
-32 -43 0
-16 -39 0
-16 -19 0
-39 -63 0
-19 -43 0
-19 -63 0
-32 -63 0
-43 -45 0
-1 -43 0
-1 -15 0
-45 -46 0
-13 -15 0
-13 -43 0
-14 -63 0
-14 -41 0
-42 -64 0
-9 -42 0
-42 -44 0
-42 -70 0
-6 -42 0
-3 -14 0
-8 -22 -46 0
-22 -56 0
-8 -19 -22 0
-37 -38 0
-22 -31 0
-19 -42 0
-19 -22 -28 0
-7 -19 -22 0
-6 -22 0
-4 -19 -22 0
-2 -19 -22 0
-14 -19 0
-5 -18 -22 0
-3 -19 0
-9 -22 0
-19 -22 -27 0
-13 -19 -22 0
-5 -22 -39 0
-19 -22 -29 0
-19 -36 0
-2 -4 -5 0
-2 -5 -28 0
-2 -7 -22 0
-2 -5 -10 0
-2 -5 -29 0
-2 -36 0
-11 -44 0
-8 -22 -45 0
-22 -28 -45 0
-17 -42 0
-42 -45 0
-42 -65 0
-14 -17 0
-8 -17 -22 0
-17 -22 -28 0
-17 -22 -27 0
-7 -22 -45 0
-4 -22 -45 0
-13 -22 -45 0
-22 -29 -45 0
-36 -45 0
-10 -17 -22 0
-11 -12 0
-3 -12 0
-12 -22 -37 0
-2 -60 0
-5 -12 -22 0
-2 -5 -38 0
-18 -38 0
-40 -63 0
-12 -40 0
-38 -40 0
-40 -45 0
-19 -40 0
-18 -40 0
-7 -9 -40 0
-4 -6 -9 -62 0
-17 -40 0
-5 -6 0
-40 -44 0
-40 -65 0
-40 -64 0
-6 -13 0
-40 -41 0
-30 -40 -70 0
-6 -40 -70 0
-39 -40 0
-32 -40 0
-40 -56 0
-14 -40 0
-9 -30 -40 0
-2 -16 -40 0
-1 -16 0
-6 -16 -20 -40 0
-15 -16 -40 0
-9 -33 -62 0
-9 -34 -62 0
-9 -35 -62 0
-9 -57 -62 0
-9 -58 -62 0
-9 -59 -62 0
-9 -62 -69 0
-9 -53 -62 0
-9 -16 -23 -62 0
-9 -26 -62 0
-9 -25 -40 0
-9 -54 -62 0
-6 -16 -62 -68 0
-9 -47 -62 0
-9 -50 -62 0
-9 -55 -62 0
-9 -16 -48 -62 0
-9 -21 -62 0
-16 -31 -51 -62 0
-29 -31 -62 0
-8 -31 -62 0
-6 -16 -29 -62 0
-6 -10 -16 -27 -62 0
-6 -16 -26 -62 0
-6 -16 -25 -62 0
-6 -8 -24 -40 0
-6 -8 -16 -40 0
-4 -6 -16 -40 0
-6 -16 -28 -62 0
-6 -16 -30 -62 0
-6 -16 -54 -62 0
-6 -16 -40 -53 0
-6 -10 -24 -40 0
-6 -24 -34 -62 0
-6 -33 -43 -62 0
-6 -16 -35 -62 0
-6 -16 -57 -62 0
-6 -16 -58 -62 0
-6 -16 -59 -62 0
-6 -16 -62 -69 0
-6 -16 -47 -62 0
-6 -16 -55 -62 0
-6 -16 -21 -62 0
-6 -16 -48 -62 0
-6 -23 -43 -62 0
-6 -16 -51 -62 0
-31 -50 -62 0
-16 -23 -31 -40 0
-6 -7 -16 -40 0
-6 -16 -27 -33 -62 0
-6 -16 -23 -40 0
-6 -24 -40 -50 0
-6 -16 -40 -50 0
-10 -31 -40 0
-6 -10 -16 -40 0
-6 -16 -34 -40 0
-31 -33 -40 0
-6 -16 -33 -40 0
-1 -6 -40 -68 0
-1 -6 -8 0
-1 -6 -28 0
-1 -6 -29 0
-1 -6 -10 0
-1 -6 -7 0
-1 -6 -27 0
-1 -6 -20 0
-1 -4 -6 0
-1 -2 0
-15 -40 -43 0
-30 -31 -40 0
-7 -15 -24 -40 0
-6 -24 -30 -40 0
-4 -6 -24 -40 0
-4 -31 -40 0
-7 -31 -40 0
-6 -20 -24 -40 0
-15 -24 -28 -62 0
-6 -24 -29 -40 0
-15 -24 -33 -62 0
-6 -24 -35 -40 0
-15 -24 -57 -62 0
-15 -24 -58 -62 0
-31 -59 -62 0
-31 -62 -69 0
-15 -24 -26 -62 0
-15 -24 -25 -62 0
-31 -53 -62 0
-31 -40 -47 0
-31 -54 -62 0
-21 -31 -62 0
-31 -62 -68 0
-31 -55 -62 0
-15 -31 -49 -62 0
-2 -9 -62 -67 0
-15 -31 -62 -66 0
-9 -20 -40 0
-9 -40 -68 0
-9 -15 -49 -62 0
-9 -15 -62 -66 0
-9 -15 -62 -67 0
-15 -31 -62 -67 0
-20 -31 -62 0
-28 -31 -40 0
-31 -34 -62 0
-31 -35 -62 0
-31 -57 -62 0
-31 -58 -62 0
-26 -31 -62 0
-25 -31 -62 0
-15 -24 -62 -69 0
-15 -24 -40 -59 0
-6 -24 -40 -53 0
-15 -24 -40 -53 0
-8 -40 -70 0
-7 -40 -70 0
-15 -40 -70 0
-4 -40 -70 0
-22 -40 0
-22 -62 0
-12 -44 0
-12 -64 0
-12 -41 0
-13 -38 -70 0
-22 -70 0
-8 -14 -70 0
-14 -43 0
-7 -14 -70 0
-45 -70 0
